data/solutions/recovery/wellformed/moderate/flexible/wellformed_moderate_instance53/37.sol
Elapsed time: 0.02
Upper bound: 4267.0
Planning weighted value: 137183.0
C[0]=4267.0
C[1]=4253.0
C[2]=4196.0
C[3]=4015.0
C[4]=3608.0
y[0]=2
y[1]=4
y[2]=4
y[3]=1
y[4]=1
y[5]=3
y[6]=0
y[7]=2
y[8]=2
y[9]=2
y[10]=1
y[11]=3
y[12]=4
y[13]=0
y[14]=4
y[15]=1
y[16]=3
y[17]=3
y[18]=0
y[19]=4
